2384
2270
2270
2270
2270
2270
2270
2270
2270
2270
2270
2270
2270
2270
2270
2270
2270
2270
2270
2270
2270
2270
2270
2270
2270
2270
2270
2270
2270
2270
2270
2270
2270
2270
2270
2270
2270
2270
2270
2270
2270
2270
2270
2270
2270
2270
2270
2270
2270
2270
2270
2270
2270
2270
2270
2270
2270
2270
2256
2256
2256
2256
2256
2235
2235
2235
2235
2235
2235
2235
2235
2235
2235
2235
2235
2235
2235
2235
2235
2235
2235
2235
2235
2235
2235
2235
2235
2235
2235
2235
2235
2235
2235
2235
2235
2235
2235
2235
2235
2235
2181
2181
2181
2181
2181
2181
2181
2181
2181
2181
2181
2181
2181
2181
2181
2181
2181
2181
2181
2181
2181
2181
2181
2181
2181
2181
2181
2181
2181
2181
2181
2181
2181
2181
2181
2181
2181
2181
2181
2181
2181
2181
2181
2181
2181
2181
2181
2181
2181
2181
2181
2181
2181
2181
2181
2181
2181
2181
2181
2181
2181
2181
2181
2181
2181
2181
2181
2181
2181
2181
2181
2181
2181
2181
2181
2181
2181
2181
2181
2181
2181
2181
2181
2181
2181
2181
2181
2181
2181
2181
2181
2181
2181
2181
2181
2181
2181
2181
2181
2181
2181
2181
2181
2181
2181
2181
2181
2181
2181
2181
2181
2181
2181
2181
2181
2181
2181
2181
2181
2181
2181
2181
2181
2181
2181
2181
2181
2181
2181
2181
2181
2181
2181
2181
2181
2181
2181
2181
2181
2181
2181
2181
2181
2181
2181
2181
2181
2181
2181
2181
2181
2181
2181
2181
2181
2181
2181
2181
2181
2181
2181
2181
2181
2181
2181
2181
2181
2181
2181
2181
2181
2181
2181
2181
2181
2181
2181
2181
2181
2181
2181
2181
2181
2181
2181
2181
2181
2181
2181
2181
2181
2181
2181
2181
2181
2181
2181
2181
2181
2181
2181
2181
2181
2181
2181
2181
2181
2181
2181
2181
2181
2181
2181
2181
2181
2181
2181
2181
2181
2181
2181
2181
2181
2181
2181
2181
2181
2181
2181
2181
2181
2181
2181
2181
2181
2181
2181
2181
2181
2181
2181
2181
2181
2181
2181
2181
2181
2181
2181
2181
2181
2181
2181
2181
2181
2181
2181
2181
2181
2181
2181
2181
2181
2181
2181
2181
2181
2181
2181
2181
2181
2181
2181
2181
2181
2181
2181
2181
2181
2181
2181
2181
2181
2181
2181
2181
2181
2181
2181
2181
2181
2181
2181
2181
2181
2181
2181
2181
2181
2181
2181
2181
2181
2181
2181
2181
2181
2181
2181
2181
2181
2181
2181
2181
2181
2181
2181
2181
2181
2181
2181
2181
2181
2181
2181
2181
2181
2181
2181
2181
2181
2181
2181
2181
2181
2181
2181
2181
2181
2181
2181
2181
2181
2181
2181
2181
2181
2181
2181
2181
2181
2181
2181
2181
2181
2181
2181
2181
2181
2181
2181
2181
2181
2181
2181
2181
2181
2181
2181
2181
2181
2181
2181
2181
2181
2181
2181
2181
2181
2181
2181
2181
2181
2181
2181
2181
2181
2181
2181
2181
2181
2181
2181
2181
2181
2181
2181
2181
2181
2181
2181
2181
2181
2181
2181
2181
2181
2181
2181
2181
2181
2181
2181
2181
2181
2181
2181
2181
2181
2181
2181
2181
2181
2181
2181
2181
2181
2181
2181
2181
2181
2181
2181
2181
2181
2181
2181
2181
2181
2181
2181
2181
2181
2181
2181
2181
2181
2181
2181
2181
2181
2181
2181
2181
2181
2181
2181
2181
2181
2181
2181
2181
2181
2181
2181
2181
2181
2181
2181
2181
2181
2181
2181
2181
2181
2181
2181
2181
2181
2181
2181
2181
2181
2181
2181
2181
2181
2181
2181
2181
2181
2181
2181
2181
2164
2164
2164
2164
2164
2164
2164
2164
2164
2164
2164
2164
2164
2164
2164
2164
2164
2164
2164
2164
2164
2164
2164
2164
2164
2164
2164
2164
2164
2164
2164
2164
2164
2164
2164
2164
2164
2164
2164
2164
2164
2164
2164
2164
2164
2164
2164
2164
2164
2164
2164
2164
2164
2164
2164
2164
2164
2164
2164
2164
2164
2164
2164
2164
2164
2164
2164
2164
2164
2164
2164
2164
2164
2164
2164
2164
2164
2164
2164
2164
2164
2164
2164
2164
2164
2164
2164
2164
2164
2164
2164
2164
2164
2164
2164
2164
2157
2157
2157
2157
2157
2157
2157
2157
2157
2157
2157
2157
2157
2157
2157
2157
2157
2157
2157
2157
2157
2157
2157
2157
2157
2157
2157
2157
2157
2157
2157
2157
2157
2157
2157
2157
2157
2157
2157
2157
2157
2157
2157
2157
2157
2157
2157
2157
2157
2157
2157
2157
2157
2157
2157
2157
2157
2157
2157
2157
2157
2157
2157
2157
2157
2157
2157
2157
2157
2157
2157
2157
2157
2157
2157
2157
2157
2157
2157
2157
2157
2157
2157
2157
2157
2157
2157
2157
2157
2157
2157
2157
2157
2157
2157
2157
2157
2157
2157
2157
2157
2157
2157
2157
2157
2157
2157
2157
2157
2157
2157
2157
2157
2157
2157
2157
2157
2157
2157
2157
2157
2157
2157
2157
2157
2157
2157
2157
2157
2157
2157
2157
2157
2157
2157
2157
2157
2157
2157
2157
2157
2157
2157
2157
2157
2157
2157
2157
2157
2157
2157
2157
2157
2157
2157
2157
2157
2157
2157
2157
2157
2157
2157
2157
2157
2157
2157
2157
2157
2157
2157
2157
2157
2157
2157
2157
2157
2157
2157
2157
2157
2157
2157
2157
2157
2157
2157
2157
2157
2157
2157
2157
2157
2157
2157
2157
2157
2157
2157
2157
2157
2157
2157
2157
2157
2157
2157
2157
2157
2157
2157
2157
2157
2157
2157
2157
2157
2157
2157
2157
2157
2157
2157
2157
2157
2157
2157
2157
2157
2157
2157
2157
2157
2157
2157
2157
2157
2157
2157
2157
2157
2157
2157
2157
2157
2157
2157
2157
2157
2157
2157
2157
2157
2157
2157
2157
2157
2157
2157
2157
2157
2157
2157
2157
2157
2157
2157
2157
2157
2157
2157
2157
2157
2157
2157
2157
2157
2157
2157
2157
2157
2157
2157
2157
2157
2157
2157
2157
2157
2157
2157
2157
2157
2157
2157
2157
2157
2157
2157
2157
2157
2157
2157
2157
2157
2157
2157
2157
2157
2157
2157
2157
2157
2157
2157
2157
2157
2157
2157
2157
2157
2157
2157
2157
2157
2157
2157
2157
2157
2157
2157
2157
2157
2157
2157
2157
2157
2157
2157
2157
2157
2157
2157
2157
2157
2157
2157
2157
2157
2157
2157
2157
2157
2157
2157
2157
2157
2157
2157
2157
2157
2157
2157
2157
2157
2157
2157
2157
2157
2157
2157
2157
2157
2157
2157
2157
2157
2157
2157
2157
2157
2157
2157
2157
2157
2157
2157
2157
2157
2157
2157
2157
2157
2157
2157
2157
2157
2157
2157
2157
2157
2157
2157
2157
2157
2157
2157
2157
2157
2157
2157
2157
2157
2157
2157
2157
2157
2157
2157
2157
2157
2157
2157
2157
2157
2157
2157
2157
2157
2157
2157
2157
2157
2157
2157
2157
2157
2157
2157
2157
2157
2157
2157
2157
2157
2157
2157
2157
2157
2157
2157
2157
2157
2157
2157
2157
2157
2157
2157
2157
2157
2157
2157
2157
2157
2157
2157
2157
2157
2157
2157
2157
2157
2157
2157
2157
2157
2157
2157
2157
2157
2157
2157
2157
2157
2157
2157
2157
2157
2157
2157
2157
2157
2157
2157
2157
2157
2157
2157
2157
2157
2157
2157
2157
2157
2157
2157
2157
2157
2157
2157
2157
2157
2157
2157
2157
2157
2157
2157
2157
2157
2157
2157
2157
2157
2157
2157
2157
2157
2157
2157
2157
2157
2157
2157
2157
2157
2157
2157
2157
2157
2157
2157
2157
2157
2157
2157
2157
2157
2157
2157
2157
2157
2157
2157
2157
2157
2157
2157
2157
2157
2157
2157
2157
2157
2157
2157
2157
2157
2157
2157
2157
2157
2157
2157
2157
2157
2157
2157
2157
2157
2157
2157
2157
2157
2157
2157
2157
2157
2157
2157
2157
2157
2157
2157
2157
2157
2157
2157
2157
2157
2157
2157
2157
2157
2157
2157
2157
2157
2157
2157
2157
2157
2157
2157
2157
2157
2157
2157
2157
2157
2157
2157
2157
2157
2157
2157
2157
2157
2157
2157
2157
2157
2157
2157
2157
2157
2157
2157
2157
2157
2157
2157
2157
2157
2157
2157
2157
2157
2157
2157
2157
2157
2157
2157
2157
2157
2157
2157
2157
2157
2157
2157
2157
2157
2157
2157
2157
2157
2157
2157
2157
2157
2157
2157
2157
2157
2157
2157
2157
2157
2157
2157
2157
2157
2157
2157
2157
2157
2157
2157
2157
2157
2157
2157
2157
2157
2157
2157
2157
2157
2157
2157
2157
2157
2157
2157
2157
2157
2157
2157
2157
2157
2157
2157
2157
2157
2157
2157
2157
2157
2157
2157
2157
2157
2157
2157
2157
2157
2157
2157
2157
2157
2157
2157
2157
2157
2157
2157
2157
2157
2157
2157
2157
2157
2157
2157
2157
2157
2157
2157
2157
2157
2157
2157
2157
2157
2157
2157
2157
2157
2157
2157
2157
2157
2157
2157
2157
2157
2157
2157
2157
2157
2157
2157
2157
2157
2157
2157
2157
2157
2157
2157
2157
2157
2157
2157
2157
2157
2157
2157
2157
2157
2157
2157
2157
2157
2157
2157
2157
2157
2157
2157
2157
2157
2157
2157
2157
2157
2157
2157
2157
2157
2157
2157
2157
2157
2157
2157
2157
2157
2157
2157
2157
2157
2157
2157
2157
2157
2157
2157
2157
2157
2157
2157
2157
2157
2157
2157
2157
2157
2157
2157
2157
2157
2157
2157
2157
2157
2157
2157
2157
2157
2157
2157
2157
2157
2157
2157
2157
2157
2157
2157
2157
2157
2157
2157
2157
2157
2157
2157
2157
2157
2157
2157
2157
2157
2157
2157
2157
2157
2157
2157
2157
2157
2157
2157
2157
2157
2157
2157
2157
2157
2157
2157
2157
2157
2157
2157
2157
2154
2154
2154
2154
2154
2154
2154
2154
2154
2154
2154
2154
2154
2154
2154
2154
2154
2154
2154
2154
2154
2154
2154
2154
2154
2154
2154
2154
2154
2154
2154
2154
2154
2154
2154
2154
2154
2154
2154
2154
2154
2154
2154
2154
2154
2154
2154
2154
2154
2154
2154
2154
2154
2154
2154
2154
2154
2154
2154
2154
2154
2154
2154
2154
2154
2154
2154
2154
2154
2154
2154
2154
2154
2154
2154
2154
2154
2154
2154
2154
2154
2154
2154
2154
2154
2154
2154
2154
2154
2154
2154
2154
2154
2154
2154
2154
2154
2154
2154
2154
2154
2154
2154
2154
2154
2154
2154
2154
2154
2154
2154
2154
2154
2154
2154
2154
2154
2154
2154
2154
2154
2154
2154
2154
2154
2154
2154
2154
2154
2154
2154
2154
2154
2154
2154
2154
2154
2154
2154
2154
2154
2154
2154
2154
2154
2154
2154
2154
2154
2154
2154
2154
2154
2154
2154
2154
2154
2154
2154
2154
2154
2154
2154
2154
2154
2154
2154
2154
2154
2154
2154
2154
2154
2154
2154
2154
2154
2154
2154
2154
2154
2154
2154
2154
2154
2154
2154
2154
2154
2154
2154
2154
2154
2154
2154
2154
2154
2154
2154
2154
2154
2154
2154
2154
2154
2154
2154
2154
2154
2154
2154
2154
2154
2154
2154
2154
2154
2154
2154
2154
2154
2154
2154
2154
2154
2154
2154
2154
2154
2154
2154
2154
2154
2154
2154
2154
2154
2154
2154
2154
2154
2154
2154
2154
2154
2154
2154
2154
2154
2154
2154
2154
2154
2154
2154
2154
2154
2154
2154
2154
2154
2154
2154
2154
2154
2154
2154
2154
2154
2154
2154
2154
2154
2154
2154
2154
2154
2154
2154
2154
2154
2154
2154
2154
2154
2154
2154
2154
2154
2154
2154
2154
2154
2154
2154
2154
2154
2154
2154
2154
2154
2154
2154
2154
2154
2154
2154
2154
2154
2154
2154
2154
2154
2154
2154
2154
2154
2154
2154
2154
2154
2154
2154
2154
2154
2154
2154
2154
2154
2154
2154
2154
2154
2154
2154
2154
2154
2154
2154
2154
2154
2154
2154
2154
2154
2154
2154
2154
2154
2154
2154
2154
2154
2154
2154
2154
2154
2154
2154
2154
2154
2154
2154
2154
2154
2154
2154
2154
2154
2154
2154
2154
2154
2154
2154
2154
2154
2154
2154
2154
2154
2154
2154
2154
2154
2154
2154
2154
2154
2154
2154
2154
2154
2154
2154
2154
2154
2154
2154
2154
2154
2154
2154
2154
2154
2154
2154
2154
2154
